625
2
28, 25, 48, 49, 77, 47, 53, 78, 50, 71, 24, 2, 37, 22, 38, 7, 30, 47, 79, 57, 4, 27, 96
16, 47, 65, 79, 50, 67, 20, 37, 66, 74, 10, 64, 37, 47, 30, 89, 43, 89, 98, 88, 20, 57, 97
1, 1, 2, 2, 1, 2, 2, 2, 2, 1, 2, 1, 2, 1, 2, 1, 1, 1, 2, 1, 2, 1, 2